# vtk DataFile Version 1.0
Elasticity 
ASCII

DATASET UNSTRUCTURED_GRID
POINTS   99 float
  -4.5000000E+00   -4.5000000E+00    0.0000000E+00
  -1.5000000E+00   -4.5000000E+00    0.0000000E+00
   1.5000000E+00   -4.5000000E+00    0.0000000E+00
   4.5000000E+00   -4.5000000E+00    0.0000000E+00
  -4.5000000E+00   -1.5000000E+00    0.0000000E+00
  -1.5000000E+00   -1.5000000E+00    0.0000000E+00
   1.5000000E+00   -1.5000000E+00    0.0000000E+00
   4.5000000E+00   -1.5000000E+00    0.0000000E+00
  -4.5000000E+00    1.5000000E+00    0.0000000E+00
  -1.5000000E+00    1.5000000E+00    0.0000000E+00
   1.5000000E+00    1.5000000E+00    0.0000000E+00
   4.5000000E+00    1.5000000E+00    0.0000000E+00
  -4.5000000E+00    4.5000000E+00    0.0000000E+00
  -1.5000000E+00    4.5000000E+00    0.0000000E+00
   1.5000000E+00    4.5000000E+00    0.0000000E+00
   4.5000000E+00    4.5000000E+00    0.0000000E+00
  -1.5000000E+00   -4.5000000E+00    0.0000000E+00
   1.5000000E+00   -4.5000000E+00    0.0000000E+00
  -4.5000000E+00   -1.5000000E+00    0.0000000E+00
  -1.5000000E+00   -1.5000000E+00    0.0000000E+00
  -1.5000000E+00   -1.5000000E+00    0.0000000E+00
  -1.5000000E+00   -1.5000000E+00    0.0000000E+00
   1.5000000E+00   -1.5000000E+00    0.0000000E+00
   1.5000000E+00   -1.5000000E+00    0.0000000E+00
   1.5000000E+00   -1.5000000E+00    0.0000000E+00
   4.5000000E+00   -1.5000000E+00    0.0000000E+00
  -4.5000000E+00    1.5000000E+00    0.0000000E+00
  -1.5000000E+00    1.5000000E+00    0.0000000E+00
  -1.5000000E+00    1.5000000E+00    0.0000000E+00
  -1.5000000E+00    1.5000000E+00    0.0000000E+00
   1.5000000E+00    1.5000000E+00    0.0000000E+00
   1.5000000E+00    1.5000000E+00    0.0000000E+00
   1.5000000E+00    1.5000000E+00    0.0000000E+00
   4.5000000E+00    1.5000000E+00    0.0000000E+00
  -1.5000000E+00    4.5000000E+00    0.0000000E+00
   1.5000000E+00    4.5000000E+00    0.0000000E+00
  -3.0000000E+00   -3.0000000E+00    0.0000000E+00
   0.0000000E+00    0.0000000E+00    0.0000000E+00
   0.0000000E+00    0.0000000E+00    0.0000000E+00
  -4.1941759E-16   -3.0000000E+00    0.0000000E+00
   0.0000000E+00    0.0000000E+00    0.0000000E+00
   0.0000000E+00    0.0000000E+00    0.0000000E+00
   3.0000000E+00   -3.0000000E+00    0.0000000E+00
   0.0000000E+00    0.0000000E+00    0.0000000E+00
   0.0000000E+00    0.0000000E+00    0.0000000E+00
  -3.0000000E+00   -3.2073110E-16    0.0000000E+00
   0.0000000E+00    0.0000000E+00    0.0000000E+00
   0.0000000E+00    0.0000000E+00    0.0000000E+00
  -2.9605947E-16   -3.9474596E-16    0.0000000E+00
   0.0000000E+00    0.0000000E+00    0.0000000E+00
   0.0000000E+00    0.0000000E+00    0.0000000E+00
   3.0000000E+00   -3.4540272E-16    0.0000000E+00
   0.0000000E+00    0.0000000E+00    0.0000000E+00
   0.0000000E+00    0.0000000E+00    0.0000000E+00
  -3.0000000E+00    3.0000000E+00    0.0000000E+00
   0.0000000E+00    0.0000000E+00    0.0000000E+00
   0.0000000E+00    0.0000000E+00    0.0000000E+00
  -2.9605947E-16    3.0000000E+00    0.0000000E+00
   0.0000000E+00    0.0000000E+00    0.0000000E+00
   0.0000000E+00    0.0000000E+00    0.0000000E+00
   3.0000000E+00    3.0000000E+00    0.0000000E+00
   0.0000000E+00    0.0000000E+00    0.0000000E+00
   0.0000000E+00    0.0000000E+00    0.0000000E+00
  -3.0000000E+00   -4.5000000E+00    0.0000000E+00
   0.0000000E+00    0.0000000E+00    0.0000000E+00
   0.0000000E+00    0.0000000E+00    0.0000000E+00
  -4.5000000E+00   -3.0000000E+00    0.0000000E+00
   0.0000000E+00    0.0000000E+00    0.0000000E+00
   0.0000000E+00    0.0000000E+00    0.0000000E+00
  -4.4408921E-16   -4.5000000E+00    0.0000000E+00
   0.0000000E+00    0.0000000E+00    0.0000000E+00
   0.0000000E+00    0.0000000E+00    0.0000000E+00
   3.0000000E+00   -4.5000000E+00    0.0000000E+00
   0.0000000E+00    0.0000000E+00    0.0000000E+00
   0.0000000E+00    0.0000000E+00    0.0000000E+00
   4.5000000E+00   -3.0000000E+00    0.0000000E+00
   0.0000000E+00    0.0000000E+00    0.0000000E+00
   0.0000000E+00    0.0000000E+00    0.0000000E+00
  -4.5000000E+00   -6.2912638E-16    0.0000000E+00
   0.0000000E+00    0.0000000E+00    0.0000000E+00
   0.0000000E+00    0.0000000E+00    0.0000000E+00
   4.5000000E+00   -6.2912638E-16    0.0000000E+00
   0.0000000E+00    0.0000000E+00    0.0000000E+00
   0.0000000E+00    0.0000000E+00    0.0000000E+00
  -3.0000000E+00    4.5000000E+00    0.0000000E+00
   0.0000000E+00    0.0000000E+00    0.0000000E+00
   0.0000000E+00    0.0000000E+00    0.0000000E+00
  -4.5000000E+00    3.0000000E+00    0.0000000E+00
   0.0000000E+00    0.0000000E+00    0.0000000E+00
   0.0000000E+00    0.0000000E+00    0.0000000E+00
  -3.3306691E-16    4.5000000E+00    0.0000000E+00
   0.0000000E+00    0.0000000E+00    0.0000000E+00
   0.0000000E+00    0.0000000E+00    0.0000000E+00
   4.5000000E+00    3.0000000E+00    0.0000000E+00
   0.0000000E+00    0.0000000E+00    0.0000000E+00
   0.0000000E+00    0.0000000E+00    0.0000000E+00
   3.0000000E+00    4.5000000E+00    0.0000000E+00
   0.0000000E+00    0.0000000E+00    0.0000000E+00
   0.0000000E+00    0.0000000E+00    0.0000000E+00

CELLS 9 45
 4 0 1 5 4
 4 16 2 6 19
 4 17 3 7 22
 4 18 20 9 8
 4 21 23 10 27
 4 24 25 11 30
 4 26 28 13 12
 4 29 31 14 34
 4 32 33 15 35

CELL_TYPES 9
9
9
9
9
9
9
9
9
9

POINT_DATA   99

VECTORS Displacement float
  -9.0000000E-02    2.2500000E-02    0.0000000E+00
  -3.0000000E-02    2.2500000E-02    0.0000000E+00
   3.0000000E-02    2.2500000E-02    0.0000000E+00
   9.0000000E-02    2.2500000E-02    0.0000000E+00
  -9.0000000E-02    7.5000000E-03    0.0000000E+00
  -3.0000000E-02    7.5000000E-03    0.0000000E+00
   3.0000000E-02    7.5000000E-03    0.0000000E+00
   9.0000000E-02    7.5000000E-03    0.0000000E+00
  -9.0000000E-02   -7.5000000E-03    0.0000000E+00
  -3.0000000E-02   -7.5000000E-03    0.0000000E+00
   3.0000000E-02   -7.5000000E-03    0.0000000E+00
   9.0000000E-02   -7.5000000E-03    0.0000000E+00
  -9.0000000E-02   -2.2500000E-02    0.0000000E+00
  -3.0000000E-02   -2.2500000E-02    0.0000000E+00
   3.0000000E-02   -2.2500000E-02    0.0000000E+00
   9.0000000E-02   -2.2500000E-02    0.0000000E+00
  -3.0000000E-02    2.2500000E-02    0.0000000E+00
   3.0000000E-02    2.2500000E-02    0.0000000E+00
  -9.0000000E-02    7.5000000E-03    0.0000000E+00
  -3.0000000E-02    7.5000000E-03    0.0000000E+00
  -3.0000000E-02    7.5000000E-03    0.0000000E+00
  -3.0000000E-02    7.5000000E-03    0.0000000E+00
   3.0000000E-02    7.5000000E-03    0.0000000E+00
   3.0000000E-02    7.5000000E-03    0.0000000E+00
   3.0000000E-02    7.5000000E-03    0.0000000E+00
   9.0000000E-02    7.5000000E-03    0.0000000E+00
  -9.0000000E-02   -7.5000000E-03    0.0000000E+00
  -3.0000000E-02   -7.5000000E-03    0.0000000E+00
  -3.0000000E-02   -7.5000000E-03    0.0000000E+00
  -3.0000000E-02   -7.5000000E-03    0.0000000E+00
   3.0000000E-02   -7.5000000E-03    0.0000000E+00
   3.0000000E-02   -7.5000000E-03    0.0000000E+00
   3.0000000E-02   -7.5000000E-03    0.0000000E+00
   9.0000000E-02   -7.5000000E-03    0.0000000E+00
  -3.0000000E-02   -2.2500000E-02    0.0000000E+00
   3.0000000E-02   -2.2500000E-02    0.0000000E+00
   0.0000000E+00    0.0000000E+00    0.0000000E+00
   0.0000000E+00    0.0000000E+00    0.0000000E+00
   0.0000000E+00    0.0000000E+00    0.0000000E+00
   0.0000000E+00    0.0000000E+00    0.0000000E+00
   0.0000000E+00    0.0000000E+00    0.0000000E+00
   0.0000000E+00    0.0000000E+00    0.0000000E+00
   0.0000000E+00    0.0000000E+00    0.0000000E+00
   0.0000000E+00    0.0000000E+00    0.0000000E+00
   0.0000000E+00    0.0000000E+00    0.0000000E+00
   0.0000000E+00    0.0000000E+00    0.0000000E+00
   0.0000000E+00    0.0000000E+00    0.0000000E+00
   0.0000000E+00    0.0000000E+00    0.0000000E+00
   0.0000000E+00    0.0000000E+00    0.0000000E+00
   0.0000000E+00    0.0000000E+00    0.0000000E+00
   0.0000000E+00    0.0000000E+00    0.0000000E+00
   0.0000000E+00    0.0000000E+00    0.0000000E+00
   0.0000000E+00    0.0000000E+00    0.0000000E+00
   0.0000000E+00    0.0000000E+00    0.0000000E+00
   0.0000000E+00    0.0000000E+00    0.0000000E+00
   0.0000000E+00    0.0000000E+00    0.0000000E+00
   0.0000000E+00    0.0000000E+00    0.0000000E+00
   0.0000000E+00    0.0000000E+00    0.0000000E+00
   0.0000000E+00    0.0000000E+00    0.0000000E+00
   0.0000000E+00    0.0000000E+00    0.0000000E+00
   0.0000000E+00    0.0000000E+00    0.0000000E+00
   0.0000000E+00    0.0000000E+00    0.0000000E+00
   0.0000000E+00    0.0000000E+00    0.0000000E+00
  -6.0000000E-02    2.2500000E-02    0.0000000E+00
   2.0000000E-02   -5.0000000E-03    0.0000000E+00
   0.0000000E+00    0.0000000E+00    0.0000000E+00
  -9.0000000E-02    1.5000000E-02    0.0000000E+00
   2.0000000E-02   -5.0000000E-03    0.0000000E+00
   0.0000000E+00    0.0000000E+00    0.0000000E+00
  -8.8817842E-18    2.2500000E-02    0.0000000E+00
   2.0000000E-02   -5.0000000E-03    0.0000000E+00
   0.0000000E+00    0.0000000E+00    0.0000000E+00
   6.0000000E-02    2.2500000E-02    0.0000000E+00
   2.0000000E-02   -5.0000000E-03    0.0000000E+00
   0.0000000E+00    0.0000000E+00    0.0000000E+00
   9.0000000E-02    1.5000000E-02    0.0000000E+00
   2.0000000E-02   -5.0000000E-03    0.0000000E+00
   0.0000000E+00    0.0000000E+00    0.0000000E+00
  -9.0000000E-02    3.1456319E-18    0.0000000E+00
   2.0000000E-02   -5.0000000E-03    0.0000000E+00
   0.0000000E+00    0.0000000E+00    0.0000000E+00
   9.0000000E-02    3.1456319E-18    0.0000000E+00
   2.0000000E-02   -5.0000000E-03    0.0000000E+00
   0.0000000E+00    0.0000000E+00    0.0000000E+00
  -6.0000000E-02   -2.2500000E-02    0.0000000E+00
   2.0000000E-02   -5.0000000E-03    0.0000000E+00
   0.0000000E+00    0.0000000E+00    0.0000000E+00
  -9.0000000E-02   -1.5000000E-02    0.0000000E+00
   2.0000000E-02   -5.0000000E-03    0.0000000E+00
   0.0000000E+00    0.0000000E+00    0.0000000E+00
  -6.6613381E-18   -2.2500000E-02    0.0000000E+00
   2.0000000E-02   -5.0000000E-03    0.0000000E+00
   0.0000000E+00    0.0000000E+00    0.0000000E+00
   9.0000000E-02   -1.5000000E-02    0.0000000E+00
   2.0000000E-02   -5.0000000E-03    0.0000000E+00
   0.0000000E+00    0.0000000E+00    0.0000000E+00
   6.0000000E-02   -2.2500000E-02    0.0000000E+00
   2.0000000E-02   -5.0000000E-03    0.0000000E+00
   0.0000000E+00    0.0000000E+00    0.0000000E+00

CELL_DATA   9

TENSORS EStress float
   2.0000000E+00    1.7347235E-16 0.0000000E+000
    1.7347235E-16    0.0000000E+00 0.0000000E+000
 0.0000000E+000 0.0000000E+000 0.0000000E+000
 
   4.0659341E+00   -5.6712114E-16 0.0000000E+000
   -5.6712114E-16    2.1978022E-01 0.0000000E+000
 0.0000000E+000 0.0000000E+000 0.0000000E+000
 
   2.0000000E+00   -1.2576745E-15 0.0000000E+000
   -1.2576745E-15    2.2204460E-16 0.0000000E+000
 0.0000000E+000 0.0000000E+000 0.0000000E+000
 
   4.0659341E+00    1.6680033E-15 0.0000000E+000
    1.6680033E-15    2.1978022E-01 0.0000000E+000
 0.0000000E+000 0.0000000E+000 0.0000000E+000
 
   2.0000000E+00    1.0668549E-15 0.0000000E+000
    1.0668549E-15    2.2204460E-16 0.0000000E+000
 0.0000000E+000 0.0000000E+000 0.0000000E+000
 
   4.0659341E+00    5.8380117E-16 0.0000000E+000
    5.8380117E-16    2.1978022E-01 0.0000000E+000
 0.0000000E+000 0.0000000E+000 0.0000000E+000
 
   2.0000000E+00   -1.1796120E-15 0.0000000E+000
   -1.1796120E-15   -3.3306691E-16 0.0000000E+000
 0.0000000E+000 0.0000000E+000 0.0000000E+000
 
   4.0659341E+00   -1.2009624E-15 0.0000000E+000
   -1.2009624E-15    2.1978022E-01 0.0000000E+000
 0.0000000E+000 0.0000000E+000 0.0000000E+000
 
   2.0000000E+00    2.7755576E-16 0.0000000E+000
    2.7755576E-16   -5.5511151E-16 0.0000000E+000
 0.0000000E+000 0.0000000E+000 0.0000000E+000
 

SCALARS Region float
LOOKUP_TABLE default
   1.0000000E+00
   2.0000000E+00
   3.0000000E+00
   4.0000000E+00
   5.0000000E+00
   6.0000000E+00
   7.0000000E+00
   8.0000000E+00
   9.0000000E+00
