# vtk DataFile Version 1.0
Elasticity 
ASCII

DATASET UNSTRUCTURED_GRID
POINTS   99 float
  -4.5000000E+00   -4.5000000E+00    0.0000000E+00
  -1.5000000E+00   -4.5000000E+00    0.0000000E+00
   1.5000000E+00   -4.5000000E+00    0.0000000E+00
   4.5000000E+00   -4.5000000E+00    0.0000000E+00
  -4.5000000E+00   -1.5000000E+00    0.0000000E+00
  -1.5000000E+00   -1.5000000E+00    0.0000000E+00
   1.5000000E+00   -1.5000000E+00    0.0000000E+00
   4.5000000E+00   -1.5000000E+00    0.0000000E+00
  -4.5000000E+00    1.5000000E+00    0.0000000E+00
  -1.5000000E+00    1.5000000E+00    0.0000000E+00
   1.5000000E+00    1.5000000E+00    0.0000000E+00
   4.5000000E+00    1.5000000E+00    0.0000000E+00
  -4.5000000E+00    4.5000000E+00    0.0000000E+00
  -1.5000000E+00    4.5000000E+00    0.0000000E+00
   1.5000000E+00    4.5000000E+00    0.0000000E+00
   4.5000000E+00    4.5000000E+00    0.0000000E+00
  -1.5000000E+00   -4.5000000E+00    0.0000000E+00
   1.5000000E+00   -4.5000000E+00    0.0000000E+00
  -4.5000000E+00   -1.5000000E+00    0.0000000E+00
  -1.5000000E+00   -1.5000000E+00    0.0000000E+00
  -1.5000000E+00   -1.5000000E+00    0.0000000E+00
  -1.5000000E+00   -1.5000000E+00    0.0000000E+00
   1.5000000E+00   -1.5000000E+00    0.0000000E+00
   1.5000000E+00   -1.5000000E+00    0.0000000E+00
   1.5000000E+00   -1.5000000E+00    0.0000000E+00
   4.5000000E+00   -1.5000000E+00    0.0000000E+00
  -4.5000000E+00    1.5000000E+00    0.0000000E+00
  -1.5000000E+00    1.5000000E+00    0.0000000E+00
  -1.5000000E+00    1.5000000E+00    0.0000000E+00
  -1.5000000E+00    1.5000000E+00    0.0000000E+00
   1.5000000E+00    1.5000000E+00    0.0000000E+00
   1.5000000E+00    1.5000000E+00    0.0000000E+00
   1.5000000E+00    1.5000000E+00    0.0000000E+00
   4.5000000E+00    1.5000000E+00    0.0000000E+00
  -1.5000000E+00    4.5000000E+00    0.0000000E+00
   1.5000000E+00    4.5000000E+00    0.0000000E+00
  -3.0000000E+00   -3.0000000E+00    0.0000000E+00
   0.0000000E+00    0.0000000E+00    0.0000000E+00
   0.0000000E+00    0.0000000E+00    0.0000000E+00
  -4.1941759E-16   -3.0000000E+00    0.0000000E+00
   0.0000000E+00    0.0000000E+00    0.0000000E+00
   0.0000000E+00    0.0000000E+00    0.0000000E+00
   3.0000000E+00   -3.0000000E+00    0.0000000E+00
   0.0000000E+00    0.0000000E+00    0.0000000E+00
   0.0000000E+00    0.0000000E+00    0.0000000E+00
  -3.0000000E+00   -3.2073110E-16    0.0000000E+00
   0.0000000E+00    0.0000000E+00    0.0000000E+00
   0.0000000E+00    0.0000000E+00    0.0000000E+00
  -2.9605947E-16   -3.9474596E-16    0.0000000E+00
   0.0000000E+00    0.0000000E+00    0.0000000E+00
   0.0000000E+00    0.0000000E+00    0.0000000E+00
   3.0000000E+00   -3.4540272E-16    0.0000000E+00
   0.0000000E+00    0.0000000E+00    0.0000000E+00
   0.0000000E+00    0.0000000E+00    0.0000000E+00
  -3.0000000E+00    3.0000000E+00    0.0000000E+00
   0.0000000E+00    0.0000000E+00    0.0000000E+00
   0.0000000E+00    0.0000000E+00    0.0000000E+00
  -2.9605947E-16    3.0000000E+00    0.0000000E+00
   0.0000000E+00    0.0000000E+00    0.0000000E+00
   0.0000000E+00    0.0000000E+00    0.0000000E+00
   3.0000000E+00    3.0000000E+00    0.0000000E+00
   0.0000000E+00    0.0000000E+00    0.0000000E+00
   0.0000000E+00    0.0000000E+00    0.0000000E+00
  -3.0000000E+00   -4.5000000E+00    0.0000000E+00
   0.0000000E+00    0.0000000E+00    0.0000000E+00
   0.0000000E+00    0.0000000E+00    0.0000000E+00
  -4.5000000E+00   -3.0000000E+00    0.0000000E+00
   0.0000000E+00    0.0000000E+00    0.0000000E+00
   0.0000000E+00    0.0000000E+00    0.0000000E+00
  -4.4408921E-16   -4.5000000E+00    0.0000000E+00
   0.0000000E+00    0.0000000E+00    0.0000000E+00
   0.0000000E+00    0.0000000E+00    0.0000000E+00
   3.0000000E+00   -4.5000000E+00    0.0000000E+00
   0.0000000E+00    0.0000000E+00    0.0000000E+00
   0.0000000E+00    0.0000000E+00    0.0000000E+00
   4.5000000E+00   -3.0000000E+00    0.0000000E+00
   0.0000000E+00    0.0000000E+00    0.0000000E+00
   0.0000000E+00    0.0000000E+00    0.0000000E+00
  -4.5000000E+00   -6.2912638E-16    0.0000000E+00
   0.0000000E+00    0.0000000E+00    0.0000000E+00
   0.0000000E+00    0.0000000E+00    0.0000000E+00
   4.5000000E+00   -6.2912638E-16    0.0000000E+00
   0.0000000E+00    0.0000000E+00    0.0000000E+00
   0.0000000E+00    0.0000000E+00    0.0000000E+00
  -3.0000000E+00    4.5000000E+00    0.0000000E+00
   0.0000000E+00    0.0000000E+00    0.0000000E+00
   0.0000000E+00    0.0000000E+00    0.0000000E+00
  -4.5000000E+00    3.0000000E+00    0.0000000E+00
   0.0000000E+00    0.0000000E+00    0.0000000E+00
   0.0000000E+00    0.0000000E+00    0.0000000E+00
  -3.3306691E-16    4.5000000E+00    0.0000000E+00
   0.0000000E+00    0.0000000E+00    0.0000000E+00
   0.0000000E+00    0.0000000E+00    0.0000000E+00
   4.5000000E+00    3.0000000E+00    0.0000000E+00
   0.0000000E+00    0.0000000E+00    0.0000000E+00
   0.0000000E+00    0.0000000E+00    0.0000000E+00
   3.0000000E+00    4.5000000E+00    0.0000000E+00
   0.0000000E+00    0.0000000E+00    0.0000000E+00
   0.0000000E+00    0.0000000E+00    0.0000000E+00

CELLS 9 45
 4 0 1 5 4
 4 16 2 6 19
 4 17 3 7 22
 4 18 20 9 8
 4 21 23 10 27
 4 24 25 11 30
 4 26 28 13 12
 4 29 31 14 34
 4 32 33 15 35

CELL_TYPES 9
9
9
9
9
9
9
9
9
9

POINT_DATA   99

VECTORS Displacement float
   8.6151355E-01    2.0731987E-01    0.0000000E+00
  -1.8796044E+00   -3.0040099E-01    0.0000000E+00
   4.6548905E-01    9.5292601E-01    0.0000000E+00
   9.9547865E-01    3.2943700E-01    0.0000000E+00
  -2.6041213E+00   -7.2040908E-01    0.0000000E+00
   1.7082803E+00   -7.3677816E-02    0.0000000E+00
  -3.3963389E-01   -1.2826991E-03    0.0000000E+00
  -2.3016885E+00   -1.0466207E-01    0.0000000E+00
   6.2619496E-01    1.4969758E-02    0.0000000E+00
  -4.8410691E-01    6.6134176E-01    0.0000000E+00
  -4.9480007E-02   -3.2322305E-01    0.0000000E+00
   6.6437828E-01    1.7772482E-01    0.0000000E+00
   8.2283070E-01    2.8723976E-01    0.0000000E+00
  -1.6638654E+00   -1.1416808E+00    0.0000000E+00
   5.2919178E-01   -5.6767980E-01    0.0000000E+00
   1.0341615E+00    1.6512263E-01    0.0000000E+00
   4.6329974E-01   -5.2659851E-01    0.0000000E+00
  -1.5977831E+00   -1.0833276E+00    0.0000000E+00
   4.9230455E-01    1.9230033E-01    0.0000000E+00
  -6.6632804E-01   -3.3505077E-01    0.0000000E+00
  -5.3953474E-01   -4.6217545E-01    0.0000000E+00
  -1.1268349E-01   -3.0831616E-01    0.0000000E+00
   1.9699715E+00    1.0885065E+00    0.0000000E+00
   3.0233773E-01    8.7434945E-01    0.0000000E+00
  -4.1554786E-01    6.7454557E-01    0.0000000E+00
   7.9826869E-01    2.9545274E-02    0.0000000E+00
  -2.5094016E+00   -1.1843508E-01    0.0000000E+00
   2.3913424E-01    8.5944255E-01    0.0000000E+00
   1.9233076E+00    1.0779453E+00    0.0000000E+00
  -3.8796821E-01   -1.7401021E-02    0.0000000E+00
  -4.7097569E-01   -4.7537925E-01    0.0000000E+00
  -6.1799371E-01   -3.5116909E-01    0.0000000E+00
   1.7549442E+00   -8.4238933E-02    0.0000000E+00
  -2.3964083E+00   -7.3418209E-01    0.0000000E+00
   3.9959701E-01    9.1184472E-01    0.0000000E+00
  -1.8135222E+00   -3.5875419E-01    0.0000000E+00
   0.0000000E+00    0.0000000E+00    0.0000000E+00
   0.0000000E+00    0.0000000E+00    0.0000000E+00
   0.0000000E+00    0.0000000E+00    0.0000000E+00
   0.0000000E+00    0.0000000E+00    0.0000000E+00
   0.0000000E+00    0.0000000E+00    0.0000000E+00
   0.0000000E+00    0.0000000E+00    0.0000000E+00
   0.0000000E+00    0.0000000E+00    0.0000000E+00
   0.0000000E+00    0.0000000E+00    0.0000000E+00
   0.0000000E+00    0.0000000E+00    0.0000000E+00
   0.0000000E+00    0.0000000E+00    0.0000000E+00
   0.0000000E+00    0.0000000E+00    0.0000000E+00
   0.0000000E+00    0.0000000E+00    0.0000000E+00
   0.0000000E+00    0.0000000E+00    0.0000000E+00
   0.0000000E+00    0.0000000E+00    0.0000000E+00
   0.0000000E+00    0.0000000E+00    0.0000000E+00
   0.0000000E+00    0.0000000E+00    0.0000000E+00
   0.0000000E+00    0.0000000E+00    0.0000000E+00
   0.0000000E+00    0.0000000E+00    0.0000000E+00
   0.0000000E+00    0.0000000E+00    0.0000000E+00
   0.0000000E+00    0.0000000E+00    0.0000000E+00
   0.0000000E+00    0.0000000E+00    0.0000000E+00
   0.0000000E+00    0.0000000E+00    0.0000000E+00
   0.0000000E+00    0.0000000E+00    0.0000000E+00
   0.0000000E+00    0.0000000E+00    0.0000000E+00
   0.0000000E+00    0.0000000E+00    0.0000000E+00
   0.0000000E+00    0.0000000E+00    0.0000000E+00
   0.0000000E+00    0.0000000E+00    0.0000000E+00
  -6.0000000E-02    2.2500000E-02    0.0000000E+00
   2.0000000E-02   -5.0000000E-03    0.0000000E+00
   0.0000000E+00    0.0000000E+00    0.0000000E+00
  -9.0000000E-02    1.5000000E-02    0.0000000E+00
   2.0000000E-02   -5.0000000E-03    0.0000000E+00
   0.0000000E+00    0.0000000E+00    0.0000000E+00
  -8.8817842E-18    2.2500000E-02    0.0000000E+00
   2.0000000E-02   -5.0000000E-03    0.0000000E+00
   0.0000000E+00    0.0000000E+00    0.0000000E+00
   6.0000000E-02    2.2500000E-02    0.0000000E+00
   2.0000000E-02   -5.0000000E-03    0.0000000E+00
   0.0000000E+00    0.0000000E+00    0.0000000E+00
   9.0000000E-02    1.5000000E-02    0.0000000E+00
   2.0000000E-02   -5.0000000E-03    0.0000000E+00
   0.0000000E+00    0.0000000E+00    0.0000000E+00
  -9.0000000E-02    3.1456319E-18    0.0000000E+00
   2.0000000E-02   -5.0000000E-03    0.0000000E+00
   0.0000000E+00    0.0000000E+00    0.0000000E+00
   9.0000000E-02    3.1456319E-18    0.0000000E+00
   2.0000000E-02   -5.0000000E-03    0.0000000E+00
   0.0000000E+00    0.0000000E+00    0.0000000E+00
  -6.0000000E-02   -2.2500000E-02    0.0000000E+00
   2.0000000E-02   -5.0000000E-03    0.0000000E+00
   0.0000000E+00    0.0000000E+00    0.0000000E+00
  -9.0000000E-02   -1.5000000E-02    0.0000000E+00
   2.0000000E-02   -5.0000000E-03    0.0000000E+00
   0.0000000E+00    0.0000000E+00    0.0000000E+00
  -6.6613381E-18   -2.2500000E-02    0.0000000E+00
   2.0000000E-02   -5.0000000E-03    0.0000000E+00
   0.0000000E+00    0.0000000E+00    0.0000000E+00
   9.0000000E-02   -1.5000000E-02    0.0000000E+00
   2.0000000E-02   -5.0000000E-03    0.0000000E+00
   0.0000000E+00    0.0000000E+00    0.0000000E+00
   6.0000000E-02   -2.2500000E-02    0.0000000E+00
   2.0000000E-02   -5.0000000E-03    0.0000000E+00
   0.0000000E+00    0.0000000E+00    0.0000000E+00

CELL_DATA   9

TENSORS EStress float
   2.4818351E+01    1.7417349E+00 0.0000000E+000
    1.7417349E+00   -5.4788418E+00 0.0000000E+000
 0.0000000E+000 0.0000000E+000 0.0000000E+000
 
   3.6661233E+00   -1.5571553E+00 0.0000000E+000
   -1.5571553E+00   -2.4322195E+01 0.0000000E+000
 0.0000000E+000 0.0000000E+000 0.0000000E+000
 
  -2.2114924E+01    3.2678900E+00 0.0000000E+000
    3.2678900E+00    2.3433520E+01 0.0000000E+000
 0.0000000E+000 0.0000000E+000 0.0000000E+000
 
  -6.8069054E+01    2.3232623E+00 0.0000000E+000
    2.3232623E+00    1.1118838E+01 0.0000000E+000
 0.0000000E+000 0.0000000E+000 0.0000000E+000
 
   2.1147293E+00   -5.1070259E-14 0.0000000E+000
   -5.1070259E-14    3.1785855E-02 0.0000000E+000
 0.0000000E+000 0.0000000E+000 0.0000000E+000
 
   7.5042012E+01   -2.3232623E+00 0.0000000E+000
   -2.3232623E+00   -1.0878906E+01 0.0000000E+000
 0.0000000E+000 0.0000000E+000 0.0000000E+000
 
   2.6533783E+01   -3.2498721E+00 0.0000000E+000
   -3.2498721E+00   -2.3599077E+01 0.0000000E+000
 0.0000000E+000 0.0000000E+000 0.0000000E+000
 
   4.1534717E+00    1.5571553E+00 0.0000000E+000
    1.5571553E+00    2.5003876E+01 0.0000000E+000
 0.0000000E+000 0.0000000E+000 0.0000000E+000
 
  -2.0399491E+01   -1.7597528E+00 0.0000000E+000
   -1.7597528E+00    5.3132850E+00 0.0000000E+000
 0.0000000E+000 0.0000000E+000 0.0000000E+000
 

SCALARS Region float
LOOKUP_TABLE default
   1.0000000E+00
   2.0000000E+00
   3.0000000E+00
   4.0000000E+00
   5.0000000E+00
   6.0000000E+00
   7.0000000E+00
   8.0000000E+00
   9.0000000E+00
